0a1,7
> (set-option :lookahead-split true)
> (set-option :lookahead-score-deep true)
> (set-option :split-num 8)
> (set-option :output-dir "split_and_solve_work")
> 
> (set-option :split-format-length "brief")
> (set-option :split-format smt2)
